42      4       
10      10      10      10      
0       0       0       0       0       4       2       3       4       5       
6       0       0       6       0       1       37      
7       0       0       10      0       1       23      
4       0       0       0       3       1       6       
9       0       0       0       6       2       11      14      
6       0       0       0       1       1       7       
9       0       0       9       0       1       8       
6       0       0       8       0       1       9       
7       0       0       3       0       2       10      11      
4       0       0       0       1       1       12      
1       0       0       0       10      1       15      
7       0       5       0       0       1       13      
4       0       0       5       0       2       14      16      
1       0       0       7       0       1       20      
7       0       7       0       0       1       16      
7       0       2       0       0       1       17      
3       8       0       0       0       1       18      
4       10      0       0       0       1       19      
5       0       8       0       0       2       20      25      
5       6       0       0       0       2       21      31      
5       5       0       0       0       1       22      
7       0       0       10      0       1       23      
8       0       0       4       0       1       24      
7       3       0       0       0       1       27      
9       0       4       0       0       1       26      
7       0       0       10      0       1       28      
6       0       0       9       0       2       29      33      
6       0       0       0       8       1       30      
2       7       0       0       0       1       32      
3       1       0       0       0       1       31      
3       0       0       6       0       1       33      
10      0       0       2       0       1       35      
2       0       0       8       0       1       34      
7       0       10      0       0       1       40      
7       0       0       0       5       1       36      
8       4       0       0       0       1       37      
4       0       0       6       0       1       38      
6       3       0       0       0       1       39      
5       0       6       0       0       1       41      
9       0       0       0       7       1       42      
3       0       0       6       0       1       42      
0       0       0       0       0       0       
